c array.sh: path:     /home/seidl/data/parity/parity80.qdimacs
c array.sh: name:     parity80
c array.sh: task:     4
c array.sh: host:     c3n02
c array.sh: uname:    Linux c3n02 4.15.0-135-generic #139-Ubuntu SMP Mon Jan 18 17:38:24 UTC 2021 x86_64 x86_64 x86_64 GNU/Linux
c array.sh: start:    Tue Feb 16 22:30:17 CET 2021
c array.sh: noturbo:  1
c array.sh: governor: 32 performance
c array.sh: tmp:      1%
c array.sh: unzipped: /tmp/local-unzipped-18834717-4-parity80.cnf
using tmp directory:
  /tmp
running QBF solver...

/home/seidl/cert_tests/bin/ferp-models/ijtihad/ijtihad --dependencies=0 --wit_per_call=-1 --cex_per_call=-1 --log_phi=/tmp/ferpcert3228expanded.cnf /tmp/local-unzipped-18834717-4-parity80.cnf
c Options after parsing: 
c cex_per_call = 18446744073709551615
c wit_per_call = 18446744073709551615
c warmup = 1
c warmup_randoms = 0
c trimming_phi = 0
c trimming_ksi = 2
c trimming_interval = 200
c memory_limit = 3000000
c MySolverv970-glucose
-1 
1 
c Number of calls is: 0
c Layers in PHI: 0
c Layers in KSI: 0
c Running Ijtihad loop
c sat_solver_phi calld 0 times, running for 0.020867 seconds.
c number of layers in PHI is 2
c sat_solver_ksi was running for 0 seconds.
c number of layers in KSI is 0
c mysolver was running for 0.020868 seconds.
s cnf 0
solving done with exit code 20

QBF solver OK

running SAT Solver...

/tmp/ferpcert3228expanded.cnf
s UNSATISFIABLE

PROOF GENERATION OK

checking unsat proof

resolved 1 root and 1 empty clause
trace-size2: 206671

TRACE CHECK OK

running toferp...

ferp-size: 212920
TOFERP OK

checking FERP PROOF...

FERP CHECK OK

extracting AIG ...

aig-size: 6869679
aig-header: aag 336653 159 0 1 336494
FERP CERT OK

merging  AIG into QBF ...

CERTCHECK OK

merged-cnf-header: p cnf 337765 1012337
merged-cnf-size: 19063165
running SAT solver...

c ---- [ banner ] ------------------------------------------------------------
c
c KISSAT SAT Solver
c Copyright (c) 2019-2020 Armin Biere JKU Linz
c 
c Version 1.0.3 59813addcacc4d6fb880ebdd63685600475aa940
c gcc (Ubuntu 7.5.0-3ubuntu1~18.04) 7.5.0 -W -Wall -O3 -DNEMBEDDED -DNDEBUG -DNMETRICS -DNSTATISTICS
c Sun Feb 14 23:58:54 CET 2021 Linux cluster3 4.15.0-135-generic x86_64
c
c ---- [ parsing ] -----------------------------------------------------------
c
c opened and reading DIMACS file:
c 
c   /tmp/ferpcert_merged_cnf3228.cnf
c 
c parsed 'p cnf 337765 1012337' header
c closing input after reading 19063165 bytes (18 MB)
c finished parsing after 0.27 seconds
c
c ---- [ solving ] -----------------------------------------------------------
c
c  seconds reductions redundant irredundant
c         MB   restarts    trail        variables
c          level  conflicts   glue            remaining
c
c *  0.27 50 0  0  0   0   0 0% 0 1012335 336969 100%
c {  0.27 50 0  0  0   0   0 0% 0 1012335 336969 100%
c i  0.43 56 84  0  0 130 126 92% 9 1012335 336968 100%
c i  0.43 56 83  0  0 131 126 91% 9 1012335 336964 100%
c i  0.44 56 134  0  0 144 137 83% 8 1012335 336963 100%
c i  0.44 56 129  0  0 149 141 80% 8 1012335 336962 100%
c i  0.46 56 188  0  0 164 154 73% 7 1012335 336958 100%
c i  0.46 56 229  0  0 176 164 68% 7 1012335 336957 100%
c i  0.46 56 237  0  0 178 165 68% 7 1012335 336956 100%
c i  0.46 56 254  0  0 183 168 66% 6 1012335 336950 100%
c -  0.51 57 465  1  0 301 219 40% 4 1011014 336950 100%
c i  0.57 57 411  1 13 346 260 35% 5 1011014 336949 100%
c i  0.69 57 414  1 27 636 542 36% 4 1011014 336948 100%
c i  0.70 57 383  1 27 683 581 34% 4 1011014 336947 100%
c i  0.70 57 378  1 27 690 587 33% 4 1011014 336946 100%
c i  0.74 57 321  1 27 816 707 29% 4 1011014 336945 100%
c i  0.77 57 297  1 31 862 745 27% 4 1011014 336944 100%
c i  0.78 57 279  1 31 897 777 26% 4 1011014 336943 100%
c -  0.80 57 277  2 31 901 718 26% 4 1010990 336943 100%
c }  0.83 57 241  2 31 1000 815 23% 4 1010990 336943 100%
c
c  seconds reductions  redundant irredundant
c         MB   restarts     trail        variables
c          level  conflicts    glue            remaining
c
c [  0.83 57 0  2 31 1000 815 0% 0 1010990 336943 100%
c O  0.90 58 54  2 31 1002 816 19% 2 1010663 336943 100%
c ]  1.39 58 42  2 31 1750 1542 23% 6 1010663 336943 100%
c {  1.39 58 241  2 31 1750 1542 23% 4 1010663 336943 100%
c i  1.42 58 225  2 31 1797 1587 23% 4 1010663 336934 100%
c -  1.46 58 225  3 31 1802 1364 23% 4 1010628 336934 100%
c i  1.49 58 219  3 31 1875 1419 24% 4 1010628 336932 100%
c i  1.64 59 203  3 39 2250 1769 27% 4 1010628 336931 100%
c i  1.64 59 201  3 39 2262 1780 27% 4 1010628 336930 100%
c i  1.66 59 197  3 39 2284 1801 27% 4 1010628 336929 100%
c i  1.70 59 177  3 39 2459 1963 30% 3 1010628 336926 100%
c i  1.75 59 172  3 43 2565 2061 30% 3 1010628 336925 100%
c i  1.78 59 171  3 43 2625 2119 31% 3 1010628 336921 100%
c i  1.82 59 170  3 43 2809 2280 32% 3 1010628 336920 100%
c -  1.89 59 168  4 43 3002 2158 33% 3 1010587 336920 100%
c I  1.89 59 168  4 43 3003 2159 33% 3 1010587 336920 100%
c i  1.91 59 160  4 43 3138 2281 32% 3 1010587 336919 100%
c i  1.95 59 155  4 46 3225 2359 31% 3 1010587 336918 100%
c i  2.01 59 150  4 48 3320 2447 31% 3 1010587 336916 100%
c i  2.04 59 150  4 48 3394 2513 32% 3 1010587 336914 100%
c
c  seconds   reductions  redundant   irredundant
c         MB     restarts       trail        variables
c           level   conflicts      glue            remaining
c
c d  2.30 59 141  4 93 3600 2657 31% 3 1010451 336854 100%
c d  2.36 62 141  4 93 3600 2657 31% 3 1010316 336796 100%
c 3  2.50 65 141  4 93 3600 9600 31% 3 1010316 336796 100%
c t  2.53 65 141  4 93 3600 9598 31% 3 1009139 336576 100%
c f  3.05 68 141  4 93 3600 176566 31% 3 1009090 335631 99%
c f  3.08 68 141  4 93 3600 176578 31% 3 1008811 335631 99%
c u  3.20 68 141  4 93 3600 176513 31% 3 1008811 335631 99%
c v  3.26 68 141  4 93 3600 176407 31% 3 1008811 335631 99%
c w  4.06 69 141  4 93 3600 181282 31% 3 1008803 335616 99%
c d  4.15 68 141  4 93 3600 175357 31% 3 997878 330010 98%
c d  4.23 68 141  4 93 3600 175345 31% 3 997820 329982 98%
c i  4.24 68 141  4 93 3600 175345 31% 3 997820 329982 98%
c i  4.32 68 139  4 102 3648 175391 30% 3 997820 329981 98%
c i  4.38 68 136  4 111 3696 175438 30% 3 997820 329978 98%
c i  4.43 68 135  4 111 3726 175467 30% 3 997820 329977 98%
c }  4.48 68 134  4 111 3753 175494 30% 3 997820 329977 98%
c [  4.48 68 42  4 111 3753 175494 23% 6 997820 329977 98%
c i  4.48 68 42  4 111 3762 175501 23% 6 997820 329976 98%
c i  4.51 68 50  4 111 3827 175559 25% 6 997820 329975 98%
c i  4.51 68 49  4 111 3847 175574 24% 6 997820 329974 98%
c
c  seconds  reductions    redundant   irredundant
c         MB    restarts          trail       variables
c          level    conflicts        glue           remaining
c
c i  4.53 68 48  4 111 3876 175600 24% 6 997820 329973 98%
c i  4.53 68 48  4 111 3877 175600 24% 6 997820 329969 98%
c i  4.55 68 48  4 111 3908 175627 23% 5 997820 329968 98%
c i  4.58 68 49  4 111 3968 175680 22% 5 997820 329966 98%
c i  4.63 68 76  4 111 4028 175733 22% 5 997820 329965 98%
c -  4.87 69 552  5 111 4503 3265 34% 5 994301 329965 98%
c i  4.94 69 531  5 111 4621 3368 35% 5 994301 329964 98%
c i  5.37 70 586  5 112 5517 4217 57% 6 994301 329963 98%
c i  5.40 70 588  5 112 5586 4282 58% 6 994301 329961 98%
c ]  5.47 70 588  5 112 5647 4340 59% 7 994301 329961 98%
c {  5.47 70 134  5 112 5647 4340 30% 3 994301 329961 98%
c i  5.51 70 137  5 119 5678 4370 30% 3 994301 329958 98%
c i  5.57 70 134  5 124 5733 4418 30% 3 994301 329953 98%
c i  5.58 70 133  5 124 5739 4423 30% 3 994301 329952 98%
c i  5.60 70 132  5 124 5798 4480 30% 3 994301 329951 98%
c a  5.84 70 124  5 144 6003 4665 30% 3 994229 329944 98%
c B  5.87 70 124  5 144 6004 4666 30% 3 994229 329944 98%
c i  5.88 70 123  5 147 6011 4672 30% 3 994229 329943 98%
c i  5.93 70 123  5 152 6035 4694 30% 3 994229 329942 98%
c i  5.93 70 123  5 152 6036 4694 30% 3 994229 329936 98%
c
c  seconds   reductions   redundant  irredundant
c         MB     restarts        trail       variables
c           level    conflicts      glue           remaining
c
c i  5.95 70 121  5 152 6101 4756 29% 3 994229 329935 98%
c i  5.96 70 119  5 152 6134 4786 29% 3 994229 329933 98%
c i  6.03 70 114  5 159 6276 4919 28% 3 994229 329931 98%
c i  6.03 70 114  5 159 6285 4926 28% 3 994229 329926 98%
c -  6.06 70 113  6 159 6303 3962 28% 3 994182 329926 98%
c i  6.11 70 111  6 159 6429 4075 28% 3 994182 329925 98%
c i  6.14 70 110  6 159 6467 4110 27% 3 994182 329924 98%
c i  6.14 70 109  6 159 6510 4145 28% 3 994182 329918 98%
c i  6.22 70 109  6 169 6571 4201 28% 3 994182 329917 98%
c i  6.32 70 107  6 172 6792 4399 29% 3 994182 329913 98%
c i  6.33 70 106  6 172 6805 4410 28% 3 994182 329911 98%
c i  6.43 70 103  6 172 7099 4680 28% 3 994182 329910 98%
c i  6.50 70 103  6 177 7121 4701 28% 3 994182 329906 98%
c i  6.57 70 104  6 189 7268 4830 28% 3 994182 329905 98%
c i  6.67 70 103  6 215 7541 5072 27% 3 994182 329903 98%
c i  6.70 70 102  6 231 7594 5124 27% 3 994182 329902 98%
c i  6.70 70 102  6 231 7597 5125 27% 3 994182 329901 98%
c i  6.75 70 102  6 233 7733 5248 27% 3 994182 329900 98%
c i  6.77 70 102  6 233 7754 5268 27% 3 994182 329899 98%
c i  6.80 70 103  6 234 7830 5337 28% 3 994182 329898 98%
c
c  seconds   reductions   redundant  irredundant
c         MB     restarts        trail       variables
c           level    conflicts      glue           remaining
c
c i  6.81 70 103  6 234 7838 5344 28% 3 994182 329897 98%
c i  6.85 70 102  6 235 7923 5425 28% 3 994182 329896 98%
c i  6.90 70 100  6 236 8062 5556 27% 3 994182 329895 98%
c i  6.97 70 100  6 238 8214 5691 28% 3 994182 329894 98%
c i  6.99 70 100  6 238 8230 5706 28% 3 994182 329888 98%
c -  7.05 70 100  7 239 8403 5158 29% 3 994075 329888 98%
c i  7.16 70 98  7 255 8564 5300 29% 3 994075 329880 98%
c d  7.24 70 98  7 255 8600 5259 29% 3 993858 329792 98%
c d  7.31 70 98  7 255 8600 5256 29% 3 993682 329713 98%
c 3  7.47 73 98  7 255 8600 13548 29% 3 993682 329713 98%
c t  7.50 73 98  7 255 8600 13548 29% 3 992566 329522 98%
c f  7.96 75 98  7 255 8600 166213 29% 3 992504 328125 97%
c u  8.11 75 98  7 255 8600 166929 29% 3 992504 328125 97%
c v  8.18 75 98  7 255 8600 166877 29% 3 992504 328125 97%
c w  8.70 75 98  7 255 8600 171517 29% 3 991928 327842 97%
c d  8.80 73 98  7 255 8600 165180 29% 3 980133 321870 95%
c d  8.87 73 98  7 255 8600 165091 29% 3 979684 321647 95%
c i  8.89 73 98  7 255 8600 165091 29% 3 979684 321647 95%
c i  9.36 73 89  7 286 9205 165657 27% 3 979684 321646 95%
c i  9.68 73 87  7 339 9383 165832 26% 3 979684 321645 95%
c
c  seconds  reductions    redundant   irredundant
c         MB    restarts          trail       variables
c          level    conflicts        glue           remaining
c
c i  9.84 74 84  7 349 9597 166026 26% 3 979684 321644 95%
c i  9.87 74 84  7 353 9606 166034 26% 3 979684 321643 95%
c i  9.87 74 84  7 353 9607 166034 26% 3 979684 321637 95%
c i  9.96 74 83  7 370 9709 166134 26% 3 979684 321634 95%
c i 10.13 74 81  7 414 9868 166288 26% 3 979684 321633 95%
c i 10.14 74 82  7 414 9870 166289 26% 3 979684 321632 95%
c a 10.30 74 81  7 418 10004 154106 26% 3 974214 321559 95%
c W 10.62 75 81  7 418 10005 154107 26% 3 974214 321559 95%
c i 10.67 75 81  7 423 10031 154132 26% 3 974214 321557 95%
c i 10.76 75 79  7 438 10161 154251 26% 3 974214 321553 95%
c i 10.98 75 78  7 489 10329 154415 26% 3 974214 321549 95%
c i 11.14 75 77  7 505 10593 154660 26% 3 974214 321548 95%
c } 11.15 75 77  7 513 10647 154712 26% 3 974214 321548 95%
c [ 11.15 75 588  7 513 10647 154712 59% 7 974214 321548 95%
c - 11.32 76 551  8 513 10803 31959 58% 7 974185 321548 95%
c i 11.32 76 551  8 513 10805 31960 58% 7 974185 321547 95%
c i 11.43 76 472  8 513 11204 32343 57% 6 974185 321546 95%
c i 11.46 76 421  8 513 11441 32540 51% 6 974185 321545 95%
c i 11.61 76 362  8 514 11812 32880 47% 6 974185 321544 95%
c i 11.69 76 351  8 514 11923 32985 48% 6 974185 321543 95%
c
c  seconds   reductions     redundant  irredundant
c         MB     restarts          trail       variables
c           level     conflicts       glue           remaining
c
c i 11.70 76 346  8 514 11974 33034 48% 5 974185 321542 95%
c i 11.91 76 317  8 514 12527 33504 54% 5 974185 321533 95%
c i 12.12 76 298  8 515 13063 33916 57% 5 974185 321532 95%
c - 12.34 76 283  9 515 13505 7753 59% 5 974141 321532 95%
c i 12.36 76 281  9 515 13538 7785 59% 5 974141 321531 95%
c i 13.05 76 271  9 515 13861 8077 61% 7 974141 321529 95%
c i 13.21 77 269  9 515 13921 8132 61% 7 974141 321524 95%
c O 14.19 78 254  9 515 15016 8670 65% 11 974141 321523 95%
c i 14.26 78 249  9 515 15112 8762 64% 11 974141 321522 95%
c ] 14.37 78 240  9 515 15302 8942 63% 11 974141 321522 95%
c { 14.37 78 77  9 515 15302 8942 26% 3 974141 321522 95%
c i 14.38 78 76  9 515 15335 8970 26% 3 974141 321521 95%
c i 14.43 78 76  9 520 15375 9009 26% 3 974141 321520 95%
c i 14.51 78 77  9 525 15427 9060 27% 3 974141 321519 95%
c i 14.61 78 76  9 536 15456 9088 27% 3 974141 321518 95%
c i 14.88 78 73  9 594 15841 9451 26% 3 974141 321517 95%
c i 15.00 78 73  9 611 15909 9509 25% 3 974141 321516 95%
c i 15.17 78 72  9 617 16051 9643 26% 3 974141 321515 95%
c d 15.28 81 72  9 618 16100 9552 26% 3 973932 321412 95%
c d 15.34 81 72  9 618 16100 9548 26% 3 973798 321356 95%
c
c  seconds  reductions     redundant  irredundant
c         MB    restarts          trail       variables
c          level     conflicts       glue           remaining
c
c 3 15.53 82 72  9 618 16100 19054 26% 3 973798 321356 95%
c t 15.56 82 72  9 618 16100 19048 26% 3 972775 321298 95%
c f 15.95 83 72  9 618 16100 193944 26% 3 972770 320488 95%
c u 16.13 83 72  9 618 16100 193704 26% 3 972770 320488 95%
c v 16.19 83 72  9 618 16100 193748 26% 3 972770 320488 95%
c w 16.91 83 72  9 618 16100 196024 26% 3 972355 320244 95%
c d 17.01 86 72  9 618 16100 192605 26% 3 965373 316744 94%
c d 17.09 86 72  9 618 16100 192559 26% 3 965033 316576 94%
c i 17.11 86 72  9 618 16100 192559 26% 3 965033 316576 94%
c i 17.12 86 72  9 618 16127 192584 26% 3 965033 316575 94%
c i 17.15 86 72  9 619 16168 192623 25% 3 965033 316574 94%
c i 17.28 86 70  9 641 16383 192835 25% 3 965033 316573 94%
c - 17.75 86 70 10 688 16505 9568 25% 3 961947 316573 94%
c i 17.98 86 70 10 713 16833 9874 26% 3 961947 316572 94%
c i 18.05 86 70 10 713 16957 9988 26% 3 961947 316571 94%
c i 18.49 86 69 10 763 17119 10135 26% 3 961947 316569 94%
c i 18.54 86 69 10 780 17162 10176 26% 3 961947 316568 94%
c i 18.83 86 69 10 799 17329 10336 26% 3 961947 316564 94%
c i 18.85 86 69 10 804 17399 10399 26% 3 961947 316563 94%
c i 19.42 86 68 10 861 17996 10948 26% 3 961947 316561 94%
c
c  seconds  reductions     redundant  irredundant
c         MB    restarts          trail       variables
c          level     conflicts       glue           remaining
c
c 2 19.46 86 68 10 861 18000 10949 26% 3 956582 315399 93%
c s 19.57 86 68 10 861 18000 10949 26% 3 953600 315195 93%
c e 22.24 71 68 10 861 18000 10949 26% 3 281678 41763 12%
c s 22.37 59 68 10 861 18000 10949 26% 3 281135 41763 12%
c e 22.47 61 68 10 861 18000 10949 26% 3 279012 41223 12%
c - 22.77 40 62 11 922 19805 2839 24% 3 278091 41223 12%
c B 23.01 41 60 11 1017 21018 3916 23% 3 278091 41223 12%
c - 23.35 41 55 12 1148 23407 5777 23% 3 278091 41223 12%
c i 23.70 41 55 12 1331 25022 7225 23% 3 278091 41222 12%
c } 23.73 41 55 12 1334 25303 7462 23% 3 278091 41222 12%
c [ 23.73 41 240 12 1334 25303 7462 63% 11 278091 41222 12%
c d 23.85 41 210 12 1334 26101 8030 62% 10 277728 41085 12%
c d 23.86 41 210 12 1334 26101 8026 62% 10 277717 41080 12%
c 3 23.99 39 210 12 1334 26101 43592 62% 10 277709 41080 12%
c t 24.03 39 210 12 1334 26101 43331 62% 10 273459 41035 12%
c f 24.07 41 210 12 1334 26101 60499 62% 10 273367 40946 12%
c u 24.14 41 210 12 1334 26101 60286 62% 10 273135 40946 12%
c v 24.17 41 210 12 1334 26101 60215 62% 10 273135 40946 12%
c w 24.34 44 210 12 1334 26101 61228 62% 10 272955 40946 12%
c d 24.36 44 210 12 1334 26101 60678 62% 10 272108 40634 12%
c
c  seconds   reductions      redundant   irredundant
c         MB      restarts          trail        variables
c           level      conflicts        glue          remaining
c
c d 24.38 44 210 12 1334 26101 60667 62% 10 272103 40632 12%
c i 24.39 44 210 12 1334 26101 60667 62% 10 272103 40632 12%
c - 24.55 45 214 13 1336 27307 15477 63% 9 271713 40632 12%
c W 24.76 45 215 13 1336 28020 16098 63% 8 271713 40632 12%
c - 25.44 45 192 14 1338 31508 12212 62% 11 271712 40632 12%
c - 26.69 46 175 15 1340 36008 12298 63% 15 271711 40632 12%
c I 26.72 46 175 15 1340 36023 12312 63% 15 271711 40632 12%
c d 27.17 46 156 15 1341 38602 14402 57% 14 271588 40586 12%
c d 27.19 46 156 15 1341 38602 14401 57% 14 271553 40578 12%
c 3 27.34 41 156 15 1341 38602 52942 57% 14 271522 40578 12%
c t 27.38 41 156 15 1341 38602 52473 57% 14 271182 40571 12%
c f 27.42 42 156 15 1341 38602 70982 57% 14 271158 40556 12%
c u 27.50 42 156 15 1341 38602 70809 57% 14 271158 40556 12%
c v 27.53 43 156 15 1341 38602 70695 57% 14 271158 40556 12%
c w 27.72 46 156 15 1341 38602 72052 57% 14 268932 40556 12%
c d 27.74 46 156 15 1341 38602 71573 57% 14 268528 40385 12%
c d 27.76 46 156 15 1341 38602 71565 57% 14 268516 40382 12%
c i 27.77 46 156 15 1341 38602 71565 57% 14 268516 40382 12%
c ] 28.01 46 150 15 1343 40188 72905 56% 13 268515 40382 12%
c { 28.01 46 55 15 1343 40188 72905 23% 3 268515 40382 12%
c
c  seconds  reductions      redundant  irredundant
c         MB     restarts          trail       variables
c          level      conflicts       glue          remaining
c
c i 28.20 46 55 15 1456 40770 73431 23% 3 268515 40381 12%
c - 28.21 46 55 16 1456 40809 14451 23% 3 268460 40381 12%
c 2 28.85 46 53 16 1872 43000 16445 23% 3 267814 40377 12%
c s 28.87 46 53 16 1872 43000 16445 23% 3 266705 40377 12%
c e 29.04 37 53 16 1872 43000 16445 23% 3 238146 35509 11%
c 2 29.04 37 53 16 1872 43000 16445 23% 3 238111 35505 11%
c s 29.07 37 53 16 1872 43000 16445 23% 3 237750 35505 11%
c e 29.09 37 53 16 1872 43000 16445 23% 3 237350 35413 10%
c B 29.50 41 51 16 2116 45025 16605 23% 4 237349 35413 10%
c - 29.73 41 51 17 2224 45910 14113 23% 4 237349 35413 10%
c - 31.06 41 48 18 2984 51310 17124 23% 4 237348 35413 10%
c d 31.47 41 47 18 3119 53602 18845 23% 4 237030 35289 10%
c d 31.48 41 47 18 3119 53602 18816 23% 4 236995 35279 10%
c 3 31.64 40 47 18 3119 53602 52203 23% 4 236977 35279 10%
c t 31.67 40 47 18 3119 53602 52127 23% 4 236494 35277 10%
c f 31.71 41 47 18 3119 53602 71804 23% 4 236480 35262 10%
c u 31.79 42 47 18 3119 53602 71633 23% 4 236480 35262 10%
c v 31.82 42 47 18 3119 53602 71474 23% 4 236480 35262 10%
c w 31.99 44 47 18 3119 53602 71625 23% 4 235263 35262 10%
c d 32.02 44 47 18 3119 53602 71179 23% 4 234951 35121 10%
c
c  seconds  reductions      redundant  irredundant
c         MB     restarts          trail       variables
c          level      conflicts       glue          remaining
c
c i 32.04 44 47 18 3119 53602 71179 23% 4 234951 35121 10%
c W 32.72 45 46 18 3385 55025 72205 23% 4 234908 35121 10%
c - 33.36 45 46 19 3720 57012 23152 23% 4 234907 35121 10%
c } 33.38 45 45 19 3720 57188 23296 23% 4 234907 35121 10%
c [ 33.38 45 150 19 3720 57188 23296 56% 13 234907 35121 10%
c - 34.71 45 130 20 3724 63015 24448 58% 12 234906 35121 10%
c # 35.49 45 120 20 3726 66029 27254 56% 12 234906 35121 10%
c - 35.99 45 108 21 3726 69318 24513 52% 11 234905 35121 10%
c d 36.36 45 107 21 3728 71102 25841 52% 11 234819 35079 10%
c d 36.37 45 107 21 3728 71102 25840 52% 11 234812 35077 10%
c 3 36.56 40 107 21 3728 71102 62007 52% 11 234801 35077 10%
c t 36.59 40 107 21 3728 71102 61766 52% 11 234603 35077 10%
c f 36.63 41 107 21 3728 71102 82652 52% 11 234603 35065 10%
c u 36.78 41 107 21 3728 71102 82204 52% 11 234603 35065 10%
c v 36.82 42 107 21 3728 71102 82013 52% 11 234603 35065 10%
c w 37.01 45 107 21 3728 71102 83096 52% 11 233189 35064 10%
c d 37.03 45 107 21 3728 71102 82670 52% 11 232976 34977 10%
c d 37.05 45 107 21 3728 71102 82655 52% 11 232968 34974 10%
c i 37.06 45 107 21 3728 71102 82655 52% 11 232968 34974 10%
c - 38.13 45 107 22 3732 75918 26993 51% 11 232941 34974 10%
c
c  seconds   reductions      redundant   irredundant
c         MB      restarts          trail        variables
c           level      conflicts        glue          remaining
c
c i 38.53 45 106 22 3732 77693 28598 49% 12 232940 34973 10%
c B 38.61 45 106 22 3733 78030 28897 49% 12 232940 34973 10%
c ] 38.94 45 106 22 3733 79523 30322 48% 12 232940 34973 10%
c { 38.94 45 45 22 3733 79523 30322 23% 4 232940 34973 10%
c 2 39.36 46 45 22 3979 80500 31189 23% 4 232911 34972 10%
c s 39.37 46 45 22 3979 80500 31189 23% 4 232294 34972 10%
c e 39.46 36 45 22 3979 80500 31189 23% 4 226519 33679 10%
c 2 39.46 36 45 22 3979 80500 31189 23% 4 226519 33677 10%
c s 39.48 36 45 22 3979 80500 31189 23% 4 226245 33677 10%
c e 39.50 36 45 22 3979 80500 31189 23% 4 225774 33567 10%
c - 40.31 41 45 23 4435 82818 24817 24% 4 225774 33567 10%
c - 42.48 41 43 24 5578 90020 28466 24% 4 225774 33567 10%
c W 42.99 41 43 24 5748 91032 29342 24% 4 225773 33567 10%
c d 43.03 41 43 24 5758 91103 28830 24% 4 225593 33494 10%
c d 43.04 41 43 24 5758 91103 28826 24% 4 225577 33489 10%
c 3 43.26 40 43 24 5758 91103 64928 24% 4 225567 33489 10%
c t 43.29 40 43 24 5758 91103 64834 24% 4 225151 33487 10%
c f 43.33 41 43 24 5758 91103 87434 24% 4 225148 33466 10%
c u 43.46 42 43 24 5758 91103 86917 24% 4 225148 33466 10%
c v 43.51 42 43 24 5758 91103 86716 24% 4 225148 33466 10%
c
c  seconds  reductions      redundant  irredundant
c         MB     restarts          trail       variables
c          level      conflicts       glue          remaining
c
c w 43.69 45 43 24 5758 91103 87645 24% 4 224169 33462 10%
c d 43.72 45 43 24 5758 91103 86902 24% 4 223771 33301 10%
c i 43.74 45 43 24 5758 91103 86902 24% 4 223771 33301 10%
c - 46.39 45 41 25 7179 97520 37660 24% 4 223710 33301 10%
c i 47.50 45 40 25 7757 99898 39867 24% 4 223708 33300 10%
c F 49.71 46 40 25 8873 105033 44597 25% 4 223707 33300 10%
c - 49.85 46 40 26 8922 105320 35881 25% 4 223701 33300 10%
c } 49.95 46 40 26 8978 105524 36062 25% 5 223701 33300 10%
c [ 49.95 46 106 26 8978 105524 36062 48% 12 223701 33300 10%
c - 51.73 46 102 27 8983 113421 36131 52% 11 223698 33300 10%
c d 51.79 46 102 27 8983 113604 36003 52% 11 223554 33239 10%
c d 51.80 46 102 27 8983 113604 36000 52% 11 223522 33229 10%
c 3 52.07 40 102 27 8983 113604 74767 52% 11 223501 33229 10%
c t 52.10 40 102 27 8983 113604 74657 52% 11 223172 33229 10%
c f 52.16 42 102 27 8983 113604 104368 52% 11 223172 33178 10%
c u 52.38 43 102 27 8983 113604 103814 52% 11 223172 33178 10%
c v 52.45 43 102 27 8983 113604 103423 52% 11 223172 33178 10%
c w 52.65 45 102 27 8983 113604 104664 52% 11 221725 33178 10%
c d 52.67 45 102 27 8983 113604 103372 52% 11 221228 32962 10%
c d 52.69 45 102 27 8983 113604 103333 52% 11 221226 32959 10%
c
c  seconds   reductions       redundant    irredundant
c         MB      restarts            trail        variables
c           level      conflicts          glue          remaining
c
c i 52.70 45 102 27 8983 113604 103333 52% 11 221226 32959 10%
c B 54.23 46 95 27 8987 120035 108602 49% 11 221125 32959 10%
c - 54.73 46 93 28 8987 121821 49370 49% 11 221124 32959 10%
c 2 56.96 46 84 28 8992 130502 56832 48% 11 221046 32958 10%
c s 56.98 46 84 28 8992 130502 56832 48% 11 219931 32958 10%
c e 57.08 36 84 28 8992 130502 56832 48% 11 215445 31942 9%
c 2 57.08 36 84 28 8992 130502 56832 48% 11 215428 31941 9%
c s 57.10 36 84 28 8992 130502 56832 48% 11 215082 31941 9%
c e 57.13 36 84 28 8992 130502 56832 48% 11 214914 31893 9%
c - 57.16 39 84 29 8992 130522 35844 48% 11 214914 31893 9%
c W 58.47 40 81 29 8992 136036 40471 48% 11 214914 31893 9%
c d 59.06 41 80 29 8993 138607 42434 47% 11 214866 31871 9%
c 3 59.37 40 80 29 8993 138607 84856 47% 11 214852 31871 9%
c t 59.41 40 80 29 8993 138607 83957 47% 11 214382 31869 9%
c f 59.46 42 80 29 8993 138607 110043 47% 11 214379 31834 9%
c u 59.70 43 80 29 8993 138607 109039 47% 11 214243 31834 9%
c v 59.77 43 80 29 8993 138607 108614 47% 11 214243 31834 9%
c w 59.95 46 80 29 8993 138607 108653 47% 11 213091 31828 9%
c d 59.98 46 80 29 8993 138607 107710 47% 11 212643 31655 9%
c d 59.99 46 80 29 8993 138607 107704 47% 11 212636 31653 9%
c
c  seconds  reductions       redundant    irredundant
c         MB     restarts            trail        variables
c          level      conflicts          glue         remaining
c
c i 60.00 46 80 29 8993 138607 107704 47% 11 212636 31653 9%
c - 60.31 46 79 30 8993 139522 36142 47% 11 212518 31653 9%
c - 62.57 46 73 31 8999 148822 37370 44% 11 212517 31653 9%
c ] 63.43 39 71 31 9001 152257 40207 44% 11 212514 31653 9%
c { 63.43 39 40 31 9001 152257 40207 25% 5 212514 31653 9%
c O 63.80 40 40 31 9211 153037 40891 25% 5 212514 31653 9%
c - 65.86 41 39 32 10253 158424 39809 25% 5 212513 31653 9%
c i 67.95 42 39 32 11101 164998 45426 26% 5 212513 31593 9%
c i 68.25 42 39 32 11254 165756 46079 26% 5 212513 31561 9%
c d 68.41 42 39 32 11328 166109 44195 25% 5 209979 31518 9%
c d 68.43 42 39 32 11328 166109 44087 25% 5 209618 31415 9%
c 3 68.77 40 39 32 11328 166109 90892 25% 5 209576 31415 9%
c t 68.80 40 39 32 11328 166109 90568 25% 5 209035 31405 9%
c f 68.87 42 39 32 11328 166109 125719 25% 5 208796 31378 9%
c u 69.10 43 39 32 11328 166109 124858 25% 5 208796 31378 9%
c v 69.18 44 39 32 11328 166109 124616 25% 5 208796 31378 9%
c w 69.38 46 39 32 11328 166109 125750 25% 5 206901 31378 9%
c d 69.41 46 39 32 11328 166109 124755 25% 5 206300 31177 9%
c d 69.42 46 39 32 11328 166109 124755 25% 5 206295 31176 9%
c i 69.43 46 39 32 11328 166109 124755 25% 5 206295 31176 9%
c
c  seconds  reductions        redundant  irredundant
c         MB     restarts            trail       variables
c          level       conflicts        glue         remaining
c
c - 70.31 46 39 33 11630 168326 42242 26% 5 205651 31176 9%
c B 71.23 40 39 33 11975 171038 44632 26% 5 205651 31176 9%
c i 72.03 40 38 33 12338 173035 46443 26% 5 205651 30992 9%
c i 72.05 40 38 33 12338 173121 46512 26% 5 205651 30921 9%
c i 72.11 40 38 33 12346 173276 46650 26% 5 205651 30915 9%
c i 72.12 40 38 33 12350 173296 46669 26% 5 205651 30904 9%
c i 72.13 40 38 33 12353 173308 46680 26% 5 205651 30898 9%
c i 72.23 40 38 33 12399 173581 46920 26% 5 205651 30897 9%
c i 72.48 40 38 33 12533 174205 47474 26% 5 205651 30896 9%
c i 72.64 40 38 33 12593 174620 47815 26% 5 205651 30895 9%
c i 72.76 40 38 33 12593 174934 48095 26% 5 205651 30660 9%
c } 72.76 40 38 33 12593 174937 48095 26% 5 205651 30199 9%
c 0 72.76 40 38 33 12593 174937 48095 26% 5 205651 30199 9%
c
c ---- [ result ] ------------------------------------------------------------
c
s UNSATISFIABLE
c
c ---- [ profiling ] ---------------------------------------------------------
c
c          55.82   76.71 %  search
c          32.06   44.06 %  focused
c          23.76   32.65 %  stable
c          16.68   22.92 %  simplify
c          11.82   16.25 %  probe
c           5.74    7.89 %  vivify
c           3.67    5.04 %  eliminate
c           2.14    2.94 %  ternary
c           1.79    2.45 %  failed
c           1.77    2.44 %  substitute
c           0.65    0.90 %  walking
c           0.63    0.87 %  reduce
c           0.54    0.74 %  autarky
c           0.38    0.52 %  transitive
c           0.27    0.37 %  parse
c =============================================
c          72.76  100.00 %  total
c
c ---- [ statistics ] --------------------------------------------------------
c
c conflicts:                           174937             2404.15 per second
c decisions:                           880151                5.03 per conflict
c propagations:                     489456599          6726572    per second
c reductions:                              33             5301    interval
c rephased:                                18             9719    interval
c restarts:                             12593               13.89 interval
c
c ---- [ resources ] ---------------------------------------------------------
c
c maximum-resident-set-size:        106696704 bytes        102 MB
c process-time:                         1m 12s              72.76 seconds
c
c ---- [ shutting down ] -----------------------------------------------------
c
c exit 20

SAT solver OK

VALID
c array.sh: end:      Tue Feb 16 22:31:31 CET 2021
